(declare-datatypes () ((Nat (Z) (S (p Nat)))))
(declare-datatypes () ((list (nil) (cons (head Nat) (tail list)))))
(declare-fun equal (Nat Nat) Bool)
(declare-fun elem (Nat list) Bool)
(declare-fun drop (Nat list) list)
(assert (= (equal Z Z) true))
(assert (forall ((z Nat)) (= (equal Z (S z)) false)))
(assert (forall ((x2 Nat)) (= (equal (S x2) Z) false)))
(assert
  (forall ((x2 Nat) (y2 Nat))
    (= (equal (S x2) (S y2)) (equal x2 y2))))
(assert (forall ((x Nat)) (= (elem x nil) false)))
(assert
  (forall ((x Nat) (z Nat) (xs list))
    (= (elem x (cons z xs)) (or (equal x z) (elem x xs)))))
(assert (forall ((y list)) (= (drop Z y) y)))
(assert (forall ((z Nat)) (= (drop (S z) nil) nil)))
(assert
  (forall ((z Nat) (x2 Nat) (x3 list))
    (= (drop (S z) (cons x2 x3)) (drop z x3))))
(assert-not
  (forall ((x Nat) (y Nat) (z list))
    (=> (elem x (drop y z)) (elem x z))))
(check-sat)
